p td 50 100 
50 8
49 28
45 31
17 2
18 17
22 41
6 20
11 16
32 42
29 50
17 31
9 36
38 37
26 17
9 50
16 10
27 22
23 12
13 39
14 23
20 36
6 44
15 37
12 16
25 49
42 13
2 6
16 42
18 1
45 13
8 48
11 3
39 32
33 10
20 50
28 48
46 24
1 50
20 8
48 11
29 6
11 12
1 33
46 29
43 21
31 35
30 35
49 6
15 48
1 8
9 7
17 35
6 32
18 45
21 42
13 39
32 21
2 21
12 35
11 48
22 48
33 11
46 41
48 2
45 3
4 32
30 24
31 38
26 48
2 12
4 26
19 37
4 7
40 3
25 22
10 48
9 45
36 7
28 18
12 34
21 26
39 43
15 39
3 39
8 42
40 46
4 16
47 13
49 46
46 49
13 21
2 41
14 40
46 41
10 2
19 35
50 18
1 35
23 35
26 13
